CAPACITY = 6;
N_TASKS = 20;
d = [ 4, 1, 1, 2, 2, 5, 1, 3, 2, 4, 1, 3, 3, 1, 4, 2, 3, 3, 5, 4 ];
rr = [ 1, 1, 2, 4, 4, 4, 2, 1, 2, 3, 2, 2, 1, 2, 3, 3, 3, 4, 2, 3 ];
suc = [ { 3 },
       { 19 },
       { 11, 13 },
       { 7, 10 },
       { 15 },
       { 9 },
       {  },
       { 18, 19 },
       { 11 },
       {  },
       { 13 },
       { 16 },
       {  },
       {  },
       {  },
       {  },
       { 18 },
       {  },
       {  },
       {  } ];
